p tdp 35 68
4 7
6 33
5 10
1 30
3 33
17 24
13 30
20 35
13 14
8 25
4 15
15 19
3 12
29 35
1 11
16 34
13 28
8 23
22 27
7 24
10 27
10 26
21 32
11 20
19 22
9 18
2 3
25 31
27 32
16 20
23 32
18 23
6 23
7 11
2 17
10 13
10 21
3 22
20 25
31 35
1 3
1 34
8 17
6 30
5 8
18 34
6 7
15 27
18 35
23 35
10 33
15 18
13 22
9 29
23 31
12 28
3 26
11 22
14 19
26 28
16 33
21 30
1 31
1 25
17 31
8 19
5 13
9 34
